GLPSOL--GLPK LP/MIP Solver 5.0
Parameter(s) specified in the command line:
 --lp ../modeles/3_129.lp --log 3_129.log
Reading problem data from '../modeles/3_129.lp'...
400 rows, 780 columns, 2724 non-zeros
387 integer variables, all of which are binary
1189 lines were read
GLPK Integer Optimizer 5.0
400 rows, 780 columns, 2724 non-zeros
387 integer variables, all of which are binary
Preprocessing...
378 constraint coefficient(s) were reduced
400 rows, 777 columns, 2721 non-zeros
387 integer variables, all of which are binary
Scaling...
 A: min|aij| =  2.404e-04  max|aij| =  4.000e+00  ratio =  1.664e+04
GM: min|aij| =  8.805e-02  max|aij| =  1.136e+01  ratio =  1.290e+02
EQ: min|aij| =  7.752e-03  max|aij| =  1.000e+00  ratio =  1.290e+02
2N: min|aij| =  7.692e-03  max|aij| =  1.769e+00  ratio =  2.299e+02
Constructing initial basis...
Size of triangular part is 400
Solving LP relaxation...
GLPK Simplex Optimizer 5.0
400 rows, 777 columns, 2721 non-zeros
      0: obj =   6.000000000e+00 inf =   1.450e+01 (7)
     32: obj =   4.996694712e-01 inf =   0.000e+00 (0)
*   133: obj =  -1.731793146e+00 inf =   3.817e-16 (0)
OPTIMAL LP SOLUTION FOUND
Integer optimization begins...
Long-step dual simplex will be used
+   133: mip =     not found yet >=              -inf        (1; 0)
+   138: >>>>>  -1.731793146e+00 >=  -1.731793146e+00 < 0.1% (5; 0)
+   138: mip =  -1.731793146e+00 >=     tree is empty   0.0% (0; 9)
INTEGER OPTIMAL SOLUTION FOUND
Time used:   0.0 secs
Memory used: 1.2 Mb (1207849 bytes)
